data;


param d:= 100;
param r:=5;
param p:=0.740000;
param M:=1000;
param U:=
         1         1        7.468171e-01
         2         1       -2.155008e-01
         3         1       -1.529473e+00
         4         1        8.633348e-01
         5         1       -1.521810e+00
         6         1       -4.584860e-01
         7         1       -9.906949e-01
         8         1        9.150736e-01
         9         1       -5.029372e-01
        10         1        1.354672e+00
        11         1       -4.328236e-01
        12         1        7.891325e-01
        13         1       -7.527785e-01
        14         1        5.053700e-01
        15         1        1.002496e+00
        16         1       -1.147462e+00
        17         1        3.581082e-01
        18         1       -1.545027e+00
        19         1        3.688013e-01
        20         1       -6.030256e-01
        21         1        1.022945e+00
        22         1        4.599709e-01
        23         1        6.838952e-01
        24         1       -3.076436e-02
        25         1        7.662012e-01
        26         1        1.644167e+00
        27         1        7.739104e-01
        28         1        1.011439e+00
        29         1        3.956499e-01
        30         1       -2.600263e-01
        31         1       -7.287411e-01
        32         1       -1.478139e+00
        33         1        1.177824e+00
        34         1        9.469195e-02
        35         1       -7.965101e-01
        36         1        9.169740e-01
        37         1        1.211760e+00
        38         1       -1.599125e+00
        39         1        3.259093e+00
        40         1        4.268708e-01
        41         1       -2.602977e-01
        42         1       -1.300642e+00
        43         1       -8.408631e-01
        44         1       -1.534813e+00
        45         1        1.215846e+00
        46         1       -7.876733e-02
        47         1        7.358504e-01
        48         1        7.653021e-01
        49         1        5.845296e-01
        50         1       -1.871673e+00
        51         1        3.343307e-01
        52         1       -1.392962e+00
        53         1        1.881647e+00
        54         1       -5.615166e-01
        55         1       -9.302605e-01
        56         1       -5.965745e-01
        57         1       -6.225509e-01
        58         1       -1.160794e-01
        59         1       -1.383065e+00
        60         1        1.797499e+00
        61         1        7.254327e-01
        62         1       -6.196355e-02
        63         1        1.463831e+00
        64         1       -1.335767e+00
        65         1        2.187404e+00
        66         1        1.149068e+00
        67         1        1.888719e-02
        68         1        1.208864e+00
        69         1        7.863247e-01
        70         1       -6.509160e-01
        71         1       -7.218740e-01
        72         1       -2.616177e-01
        73         1       -1.848784e-01
        74         1       -1.659543e+00
        75         1       -1.216747e-01
        76         1       -1.054595e+00
        77         1       -1.827571e+00
        78         1        1.010993e+00
        79         1        5.718928e-02
        80         1       -5.930537e-01
        81         1        5.503074e-01
        82         1        1.231015e+00
        83         1       -4.552330e-01
        84         1       -5.704204e-01
        85         1        4.796609e-01
        86         1        1.371607e+00
        87         1        2.270883e+00
        88         1        1.708239e-01
        89         1       -2.461247e-01
        90         1       -9.270619e-01
        91         1       -8.092476e-01
        92         1       -2.479268e+00
        93         1        7.079508e-01
        94         1        3.720071e-01
        95         1        3.060191e-01
        96         1       -9.230768e-03
        97         1       -5.942230e-01
        98         1       -7.116611e-01
        99         1        1.447063e+00
       100         1        3.147155e-01
         1         2       -3.436810e+00
         2         2       -1.630776e-01
         3         2        4.550224e-01
         4         2        1.071681e+00
         5         2        1.012288e+00
         6         2        2.131046e-01
         7         2       -8.209524e-02
         8         2        6.043912e-01
         9         2       -9.446924e-01
        10         2       -1.586795e+00
        11         2        1.137668e+00
        12         2       -1.006457e-01
        13         2       -9.972203e-01
        14         2       -3.666074e-01
        15         2        7.241764e-01
        16         2       -2.033492e-01
        17         2       -1.699943e-01
        18         2        8.853329e-01
        19         2        1.744575e+00
        20         2       -6.883080e-02
        21         2       -3.850682e-01
        22         2       -1.103571e+00
        23         2       -1.246968e+00
        24         2       -3.456204e+00
        25         2        2.338538e+00
        26         2       -6.668097e-02
        27         2        1.322710e-01
        28         2       -1.416595e+00
        29         2       -4.212977e-01
        30         2       -3.387324e-01
        31         2        1.834375e+00
        32         2        7.477170e-01
        33         2       -8.260871e-02
        34         2        6.516671e-01
        35         2        1.145332e+00
        36         2       -1.067283e+00
        37         2       -3.890166e-02
        38         2       -6.684351e-01
        39         2        2.590595e-01
        40         2       -6.082332e-01
        41         2       -2.804233e-01
        42         2       -2.168385e-02
        43         2        8.281683e-01
        44         2        8.224004e-01
        45         2        2.468497e-02
        46         2       -2.536682e+00
        47         2        2.427648e-01
        48         2        2.092356e-01
        49         2       -1.219894e+00
        50         2        4.235835e-03
        51         2       -1.042244e+00
        52         2       -2.680762e-01
        53         2       -8.879053e-02
        54         2        7.663273e-01
        55         2        3.022416e-01
        56         2       -1.780788e-01
        57         2       -1.900920e+00
        58         2       -1.892822e-01
        59         2        9.135106e-02
        60         2        5.780581e-01
        61         2        4.781500e-01
        62         2       -2.160613e+00
        63         2        3.748048e-01
        64         2       -2.335736e-02
        65         2       -7.614330e-01
        66         2       -1.850556e+00
        67         2        1.632684e-01
        68         2        1.538783e+00
        69         2        4.051397e-01
        70         2        2.194997e+00
        71         2       -9.103610e-01
        72         2        1.541208e-01
        73         2       -2.213113e+00
        74         2       -4.242575e-01
        75         2       -7.002656e-01
        76         2        2.967864e-01
        77         2        2.111264e+00
        78         2       -7.273780e-01
        79         2        1.204709e-01
        80         2       -4.924822e-01
        81         2       -6.162867e-01
        82         2       -1.198131e-01
        83         2        5.245259e-01
        84         2       -1.325750e+00
        85         2       -1.550728e-01
        86         2       -2.364724e-01
        87         2       -1.800138e+00
        88         2       -1.353046e-02
        89         2       -8.327645e-01
        90         2       -3.454230e-01
        91         2        4.051484e-02
        92         2       -1.358839e-01
        93         2       -5.001719e-02
        94         2        1.011341e+00
        95         2       -9.633849e-01
        96         2       -1.242770e+00
        97         2       -1.657978e-02
        98         2        2.554688e+00
        99         2        4.502060e-01
       100         2        9.557579e-01
         1         3        2.020484e+00
         2         3       -1.018673e+00
         3         3        1.777986e-01
         4         3        1.232006e+00
         5         3       -1.476542e+00
         6         3       -7.432739e-01
         7         3       -2.276518e-01
         8         3        4.221611e-01
         9         3        1.878670e-01
        10         3       -8.134282e-01
        11         3       -1.774719e+00
        12         3        3.152369e-01
        13         3        5.019291e-01
        14         3        1.381284e+00
        15         3        9.624297e-01
        16         3       -1.434714e+00
        17         3       -1.597467e+00
        18         3        3.541590e-01
        19         3        1.754192e-01
        20         3        9.598488e-01
        21         3        2.563035e-01
        22         3       -8.864001e-01
        23         3       -2.971120e-01
        24         3       -4.177709e-01
        25         3        5.566946e-01
        26         3        9.767783e-01
        27         3       -1.650374e+00
        28         3       -1.264947e+00
        29         3        1.215108e-01
        30         3       -2.678398e+00
        31         3       -3.513471e-02
        32         3       -1.423532e+00
        33         3        4.331755e-01
        34         3       -1.354152e+00
        35         3        7.253409e-01
        36         3        1.117821e+00
        37         3        2.314275e-01
        38         3       -4.956736e-01
        39         3        6.803246e-01
        40         3        1.712777e+00
        41         3        8.275725e-02
        42         3        8.553735e-01
        43         3       -1.064600e+00
        44         3       -3.152360e-01
        45         3       -1.842582e+00
        46         3       -5.082449e-02
        47         3       -2.896312e+00
        48         3       -6.130166e-01
        49         3        4.106432e-01
        50         3        5.764512e-01
        51         3        9.788906e-01
        52         3       -2.761739e-01
        53         3       -2.110854e-01
        54         3       -3.655236e-02
        55         3        9.621664e-01
        56         3       -7.909402e-02
        57         3        7.618044e-02
        58         3       -9.631812e-01
        59         3        3.141685e-01
        60         3       -3.358447e+00
        61         3       -3.303537e-01
        62         3       -5.859823e-01
        63         3       -1.420811e+00
        64         3        8.643289e-01
        65         3        2.120111e-01
        66         3        7.368519e-01
        67         3       -2.197469e-01
        68         3       -6.202659e-01
        69         3        2.105618e+00
        70         3       -5.050188e-01
        71         3       -1.225848e+00
        72         3        2.367570e+00
        73         3        3.991843e-01
        74         3       -9.307536e-01
        75         3        5.918053e-01
        76         3       -2.129526e-01
        77         3       -2.962950e-01
        78         3       -5.625105e-01
        79         3        9.856631e-01
        80         3       -2.277351e-01
        81         3        3.245995e-01
        82         3        7.202250e-01
        83         3        8.382367e-01
        84         3        1.690181e+00
        85         3       -5.925731e-01
        86         3       -1.594850e+00
        87         3       -4.044357e-01
        88         3        1.676032e+00
        89         3       -6.526560e-02
        90         3        1.447787e+00
        91         3        1.760055e+00
        92         3       -4.616543e-01
        93         3       -2.879709e-01
        94         3       -1.280491e+00
        95         3        1.944817e-01
        96         3       -1.456426e-01
        97         3       -1.336765e+00
        98         3        2.165279e-01
        99         3        1.428706e+00
       100         3       -1.415558e+00
         1         4       -2.381725e-01
         2         4       -6.314345e-01
         3         4       -2.392017e-01
         4         4        6.967675e-01
         5         4        2.038293e+00
         6         4        2.061150e-01
         7         4       -7.343089e-02
         8         4       -1.143364e+00
         9         4       -6.702065e-01
        10         4        1.090419e+00
        11         4        3.560066e-01
        12         4        1.868257e+00
        13         4        9.011005e-01
        14         4       -2.582393e-01
        15         4        1.355012e+00
        16         4       -9.311640e-02
        17         4        6.589307e-01
        18         4        5.400414e-01
        19         4       -4.338393e-01
        20         4        4.180287e-01
        21         4        6.046852e-01
        22         4        1.905275e+00
        23         4       -6.700214e-01
        24         4        1.665681e+00
        25         4       -1.649485e+00
        26         4       -4.266750e-01
        27         4       -1.771717e+00
        28         4       -3.566330e-02
        29         4        7.754261e-01
        30         4        3.599439e-01
        31         4        4.301377e-01
        32         4       -3.129871e-01
        33         4        2.785812e-01
        34         4        2.301795e-01
        35         4       -1.972413e-01
        36         4       -2.104909e+00
        37         4       -1.217569e+00
        38         4        8.270269e-01
        39         4        3.984003e-02
        40         4        3.863684e-01
        41         4       -2.349535e-01
        42         4        7.153030e-01
        43         4       -9.343032e-01
        44         4        1.271365e-01
        45         4        6.357250e-01
        46         4        4.323628e-01
        47         4        1.283815e+00
        48         4        1.398037e+00
        49         4       -5.239734e-01
        50         4        1.073917e-01
        51         4       -7.853206e-01
        52         4        7.330712e-01
        53         4        1.707485e+00
        54         4        3.009785e-02
        55         4        5.372866e-01
        56         4        7.521393e-01
        57         4        4.874464e-01
        58         4        8.582608e-01
        59         4       -6.707838e-01
        60         4       -9.095033e-01
        61         4       -9.562765e-01
        62         4       -9.929300e-01
        63         4        2.026910e+00
        64         4       -1.468883e-01
        65         4        1.648566e+00
        66         4        1.203494e+00
        67         4        7.287374e-01
        68         4       -1.019014e+00
        69         4        9.383111e-02
        70         4       -1.609664e-01
        71         4       -8.057286e-01
        72         4       -1.032480e+00
        73         4       -1.093137e+00
        74         4       -1.426554e+00
        75         4        1.742306e+00
        76         4        1.045753e+00
        77         4       -5.211078e-01
        78         4        1.392658e+00
        79         4       -3.530304e-01
        80         4       -1.720119e+00
        81         4       -5.375069e-02
        82         4       -2.222598e+00
        83         4       -9.989551e-01
        84         4       -7.526425e-01
        85         4       -3.173278e-01
        86         4       -4.539167e-01
        87         4       -1.656008e+00
        88         4       -2.144649e-01
        89         4       -1.902246e+00
        90         4        9.648191e-01
        91         4       -2.302903e-01
        92         4        6.278511e-01
        93         4        1.042352e+00
        94         4       -4.726804e-02
        95         4        7.862913e-01
        96         4        2.460961e-01
        97         4       -2.570120e-01
        98         4       -2.143592e-01
        99         4       -1.265226e+00
       100         4       -1.158420e+00
         1         5       -2.454727e-02
         2         5       -1.686661e-01
         3         5        1.077300e+00
         4         5        4.884315e-01
         5         5        9.786162e-01
         6         5        7.684676e-01
         7         5        1.715011e+00
         8         5       -4.469197e-01
         9         5       -8.243057e-01
        10         5        4.051493e-01
        11         5       -2.517814e+00
        12         5        1.583563e+00
        13         5       -2.230982e-01
        14         5        5.502830e-01
        15         5        1.961845e-01
        16         5       -4.211064e-01
        17         5        6.995614e-01
        18         5        1.706888e+00
        19         5       -3.534141e-01
        20         5        1.579033e+00
        21         5       -1.164982e+00
        22         5        6.027187e-01
        23         5       -9.600081e-01
        24         5        3.476288e-01
        25         5       -7.695533e-01
        26         5       -1.757410e+00
        27         5        7.140851e-01
        28         5       -1.956123e+00
        29         5        4.595174e-02
        30         5        1.401848e+00
        31         5       -9.121726e-01
        32         5       -1.311191e-01
        33         5        1.040930e+00
        34         5       -3.954975e-01
        35         5       -6.693894e-01
        36         5       -1.117842e-01
        37         5       -4.851657e-01
        38         5        2.546298e-01
        39         5       -6.982279e-01
        40         5       -8.884650e-01
        41         5       -6.509857e-01
        42         5       -4.030820e-03
        43         5        1.672012e+00
        44         5        1.401304e+00
        45         5       -2.640610e-02
        46         5       -3.730978e-01
        47         5        6.619597e-02
        48         5        4.305544e-01
        49         5        1.408363e+00
        50         5        1.475272e+00
        51         5        1.044888e+00
        52         5        2.811993e-01
        53         5        7.069037e-01
        54         5       -4.783346e-01
        55         5        9.580322e-02
        56         5       -8.764852e-01
        57         5        1.776834e+00
        58         5       -5.639860e-01
        59         5       -1.438493e+00
        60         5       -3.953559e-01
        61         5        1.416943e+00
        62         5       -2.572063e-01
        63         5        1.519134e+00
        64         5       -9.312588e-01
        65         5       -1.150501e+00
        66         5        7.134586e-02
        67         5        2.568226e-01
        68         5        6.374352e-02
        69         5       -2.109415e-01
        70         5        7.595545e-01
        71         5        1.771455e+00
        72         5       -8.665938e-01
        73         5        7.518297e-01
        74         5       -8.113464e-01
        75         5        2.801814e-01
        76         5       -7.889501e-01
        77         5        5.293645e-01
        78         5       -3.283860e-01
        79         5        1.194499e+00
        80         5        3.482898e-01
        81         5       -1.804896e+00
        82         5       -8.371953e-02
        83         5        4.463995e-02
        84         5        1.212979e+00
        85         5        3.253116e-01
        86         5        1.268180e+00
        87         5        1.281745e+00
        88         5       -7.140325e-01
        89         5       -8.038040e-01
        90         5        1.349761e+00
        91         5        3.506457e-01
        92         5       -2.176949e+00
        93         5       -1.318712e+00
        94         5        8.552935e-01
        95         5        1.478631e-01
        96         5       -1.825163e-02
        97         5       -3.320525e-01
        98         5       -1.589643e+00
        99         5       -5.130393e-01
       100         5       -5.762960e-02
;

param theta:=
    1       -2.558019e-01
    2        4.280112e-01
    3       -7.568694e-01
    4       -4.521590e-01
    5        8.627153e-01
;
param X_true:=
    1       -3.104759e+00
    2        8.963270e-01
    3        1.488987e+00
    4       -5.882914e-01
    5        1.862736e+00
    6        1.340826e+00
    7        1.903356e+00
    8       -1.634943e-01
    9       -8.259786e-01
   10       -5.535490e-01
   11       -3.922463e-01
   12        3.788239e-02
   13       -1.214065e+00
   14       -7.401358e-01
   15       -1.118348e+00
   16        9.711870e-01
   17        1.350290e+00
   18        1.734475e+00
   19        4.108569e-01
   20        5.715551e-01
   21       -1.898935e+00
   22       -2.606259e-01
   23       -1.009040e+00
   24       -1.608474e+00
   25        4.655037e-01
   26       -2.511634e+00
   27        2.524913e+00
   28       -1.579099e+00
   29       -6.844686e-01
   30        2.995375e+00
   31        1.670292e-02
   32        1.803972e+00
   33        1.075590e-01
   34        8.343354e-01
   35       -3.433328e-01
   36       -6.821019e-01
   37       -3.698064e-01
   38        3.438472e-01
   39       -1.858105e+00
   40       -2.607065e+00
   41       -5.714550e-01
   42       -6.508882e-01
   43        3.240247e+00
   44        2.134638e+00
   45        7.839142e-01
   46       -1.544486e+00
   47        1.584424e+00
   48        9.707380e-02
   49        4.694802e-01
   50        1.268474e+00
   51       -1.597649e-02
   52        3.617406e-01
   53       -5.217663e-01
   54        7.302341e-02
   55       -5.211972e-01
   56       -9.599947e-01
   57        6.004747e-01
   58       -1.969489e-01
   59       -7.826032e-01
   60        2.399678e+00
   61        1.923929e+00
   62       -2.383379e-01
   63        1.255433e+00
   64       -1.059484e+00
   65       -2.783878e+00
   66       -2.126312e+00
   67        1.234286e-01
   68        1.334596e+00
   69       -1.845826e+00
   70        2.216284e+00
   71        2.615398e+00
   72       -1.939832e+00
   73       -5.918871e-02
   74        8.924547e-01
   75       -1.262599e+00
   76       -5.955135e-01
   77        2.287712e+00
   78       -1.057199e+00
   79        4.810539e-01
   80        1.191524e+00
   81       -2.183034e+00
   82        2.144790e-02
   83        1.967148e-01
   84       -3.139976e-01
   85        6.835633e-01
   86        2.054341e+00
   87        8.092893e-01
   88       -1.837060e+00
   89       -7.741213e-02
   90       -2.782780e-01
   91       -7.011485e-01
   92       -1.236522e+00
   93       -1.593528e+00
   94        2.066117e+00
   95       -8.657819e-01
   96       -5.463464e-01
   97        9.864071e-01
   98       -1.628890e-01
   99       -1.129336e+00
  100        1.874035e+00
;
param X:=
    1       -4.049751e-01
    2        8.963270e-01
    3       -9.664427e-01
    4        2.683360e-01
    5        1.862736e+00
    6       -1.319581e+00
    7        1.903356e+00
    8       -2.400119e-01
    9       -4.693009e-01
   10       -5.211537e-01
   11       -2.301779e+00
   12        1.078571e+00
   13        1.150178e+00
   14        1.015548e+00
   15        6.221371e-01
   16        7.736922e-01
   17        4.679140e-02
   18        1.643614e-01
   19        4.108569e-01
   20        1.066529e+00
   21       -1.898935e+00
   22        2.542270e-01
   23       -1.085826e-01
   24       -4.202708e-01
   25       -6.601108e-01
   26       -2.511634e+00
   27       -1.429322e+00
   28       -1.260036e+00
   29       -6.844686e-01
   30        2.995375e+00
   31        1.543307e+00
   32        1.803972e+00
   33        1.271275e+00
   34        8.343354e-01
   35       -3.433328e-01
   36        1.835806e+00
   37        9.905239e-02
   38        1.914046e+00
   39       -4.931266e-01
   40       -1.823275e+00
   41       -5.714550e-01
   42       -6.508882e-01
   43        5.480700e-01
   44       -1.655713e-01
   45        4.294081e-01
   46        1.982262e+00
   47        1.584424e+00
   48        9.707380e-02
   49        4.694802e-01
   50       -1.370366e+00
   51       -7.579002e-01
   52       -1.154757e+00
   53       -8.527143e-01
   54        7.593077e-01
   55       -1.811471e-01
   56       -9.984746e-01
   57        9.098360e-01
   58       -1.969489e-01
   59       -1.001724e+00
   60        2.399678e+00
   61       -8.383446e-02
   62        2.333062e-01
   63        7.494624e-01
   64       -1.337672e+00
   65       -1.608963e-01
   66       -5.284087e-01
   67       -7.317311e-01
   68        4.069718e-01
   69        6.054619e-01
   70       -4.673194e-01
   71       -9.276015e-01
   72        3.071615e-01
   73        2.934385e-01
   74       -9.585120e-01
   75        9.298029e-01
   76       -4.657192e-01
   77       -9.108288e-01
   78       -1.057199e+00
   79        4.810539e-01
   80        1.211545e+00
   81       -2.183034e+00
   82       -5.568272e-01
   83        3.490301e-01
   84        7.630989e-01
   85       -5.035240e-01
   86        2.054341e+00
   87       -6.307738e-01
   88        1.178279e+00
   89        4.615874e-01
   90       -2.782780e-01
   91       -7.011485e-01
   92       -5.520888e-01
   93        9.087863e-01
   94       -9.651593e-01
   95       -9.871951e-01
   96       -5.463464e-01
   97        1.829043e-01
   98        6.981280e-01
   99       -1.129336e+00
  100       -1.232637e+00
;
param outliervec:=
    1    1
    2    0
    3    1
    4    1
    5    0
    6    1
    7    0
    8    1
    9    1
   10    1
   11    1
   12    1
   13    1
   14    1
   15    1
   16    1
   17    1
   18    1
   19    0
   20    1
   21    0
   22    1
   23    1
   24    1
   25    1
   26    0
   27    1
   28    1
   29    0
   30    0
   31    1
   32    0
   33    1
   34    0
   35    0
   36    1
   37    1
   38    1
   39    1
   40    1
   41    0
   42    0
   43    1
   44    1
   45    1
   46    1
   47    0
   48    0
   49    0
   50    1
   51    1
   52    1
   53    1
   54    1
   55    1
   56    1
   57    1
   58    0
   59    1
   60    0
   61    1
   62    1
   63    1
   64    1
   65    1
   66    1
   67    1
   68    1
   69    1
   70    1
   71    1
   72    1
   73    1
   74    1
   75    1
   76    1
   77    1
   78    0
   79    0
   80    1
   81    0
   82    1
   83    1
   84    1
   85    1
   86    0
   87    1
   88    1
   89    1
   90    0
   91    0
   92    1
   93    1
   94    1
   95    1
   96    0
   97    1
   98    1
   99    0
  100    1
;